Maximize

8 y_0 + 5 y_1 + 8 y_2 + 5 y_3 + 9 y_4


Subject To

a0: x_0_0 + x_0_1 + x_0_2 + x_0_3 + x_0_4 <= 1
a1: x_1_0 + x_1_1 + x_1_2 + x_1_3 + x_1_4 <= 10
a2: x_2_0 + x_2_1 + x_2_2 + x_2_3 + x_2_4 <= 3
a3: x_3_0 + x_3_1 + x_3_2 + x_3_3 + x_3_4 <= 4
a4: x_4_0 + x_4_1 + x_4_2 + x_4_3 + x_4_4 <= 10
a5: x_5_0 + x_5_1 + x_5_2 + x_5_3 + x_5_4 <= 4
a6: x_6_0 + x_6_1 + x_6_2 + x_6_3 + x_6_4 <= 1
a7: x_7_0 + x_7_1 + x_7_2 + x_7_3 + x_7_4 <= 30
b0: y_0 = 1 -> x_0_0 + x_1_0 + x_2_0 + x_3_0 + x_4_0 + x_5_0 + x_6_0 + x_7_0 > 0
b1: y_1 = 1 -> x_0_1 + x_1_1 + x_2_1 + x_3_1 + x_4_1 + x_5_1 + x_6_1 + x_7_1 > 0
b2: y_2 = 1 -> x_0_2 + x_1_2 + x_2_2 + x_3_2 + x_4_2 + x_5_2 + x_6_2 + x_7_2 > 0
b3: y_3 = 1 -> x_0_3 + x_1_3 + x_2_3 + x_3_3 + x_4_3 + x_5_3 + x_6_3 + x_7_3 > 0
b4: y_4 = 1 -> x_0_4 + x_1_4 + x_2_4 + x_3_4 + x_4_4 + x_5_4 + x_6_4 + x_7_4 > 0
z0: - x_0_0 + 0 x$_0 + 2 x$_1 = 0
z1: x$_0  + x$_1 = 1
z2: - x_0_1 + 0 x$_2 + 8 x$_3 = 0
z3: x$_2  + x$_3 = 1
z4: - x_0_2 + 0 x$_4 + 2 x$_5 = 0
z5: x$_4  + x$_5 = 1
z6: - x_1_0 + 0 x$_6 + 0 x$_7 = 0
z7: x$_6  + x$_7 = 1
z8: - x_1_1 + 0 x$_8 + 4 x$_9 = 0
z9: x$_8  + x$_9 = 1
z10: - x_1_2 + 0 x$_10 + 0 x$_11 = 0
z11: x$_10  + x$_11 = 1
z12: - x_2_0 + 0 x$_12 + 5 x$_13 = 0
z13: x$_12  + x$_13 = 1
z14: - x_2_1 + 0 x$_14 + 3 x$_15 = 0
z15: x$_14  + x$_15 = 1
z16: - x_2_2 + 0 x$_16 + 0 x$_17 = 0
z17: x$_16  + x$_17 = 1
z18: - x_3_0 + 0 x$_18 + 2 x$_19 = 0
z19: x$_18  + x$_19 = 1
z20: - x_3_1 + 0 x$_20 + 8 x$_21 = 0
z21: x$_20  + x$_21 = 1
z22: - x_3_2 + 0 x$_22 + 2 x$_23 = 0
z23: x$_22  + x$_23 = 1
z24: - x_4_0 + 0 x$_24 + 0 x$_25 = 0
z25: x$_24  + x$_25 = 1
z26: - x_4_1 + 0 x$_26 + 0 x$_27 = 0
z27: x$_26  + x$_27 = 1
z28: - x_4_2 + 0 x$_28 + 7 x$_29 = 0
z29: x$_28  + x$_29 = 1
z30: - x_0_0 + 0 x$_30 + 2 x$_31 = 0
z31: x$_30  + x$_31 = 1
z32: - x_0_1 + 0 x$_32 + 4 x$_33 = 0
z33: x$_32  + x$_33 = 1
z34: - x_0_2 + 0 x$_34 + 0 x$_35 = 0
z35: x$_34  + x$_35 = 1
z36: - x_0_3 + 0 x$_36 + 8 x$_37 = 0
z37: x$_36  + x$_37 = 1
z38: - x_0_4 + 0 x$_38 + 0 x$_39 = 0
z39: x$_38  + x$_39 = 1
z40: - x_1_0 + 0 x$_40 + 0 x$_41 = 0
z41: x$_40  + x$_41 = 1
z42: - x_1_1 + 0 x$_42 + 5 x$_43 = 0
z43: x$_42  + x$_43 = 1
z44: - x_1_2 + 0 x$_44 + 5 x$_45 = 0
z45: x$_44  + x$_45 = 1
z46: - x_1_3 + 0 x$_46 + 7 x$_47 = 0
z47: x$_46  + x$_47 = 1
z48: - x_1_4 + 0 x$_48 + 5 x$_49 = 0
z49: x$_48  + x$_49 = 1
z50: - x_2_0 + 0 x$_50 + 2 x$_51 = 0
z51: x$_50  + x$_51 = 1
z52: - x_2_1 + 0 x$_52 + 8 x$_53 = 0
z53: x$_52  + x$_53 = 1
z54: - x_2_2 + 0 x$_54 + 0 x$_55 = 0
z55: x$_54  + x$_55 = 1
z56: - x_2_3 + 0 x$_56 + 0 x$_57 = 0
z57: x$_56  + x$_57 = 1
z58: - x_2_4 + 0 x$_58 + 5 x$_59 = 0
z59: x$_58  + x$_59 = 1
z60: - x_3_0 + 0 x$_60 + 2 x$_61 = 0
z61: x$_60  + x$_61 = 1
z62: - x_3_1 + 0 x$_62 + 8 x$_63 = 0
z63: x$_62  + x$_63 = 1
z64: - x_3_2 + 0 x$_64 + 0 x$_65 = 0
z65: x$_64  + x$_65 = 1
z66: - x_3_3 + 0 x$_66 + 0 x$_67 = 0
z67: x$_66  + x$_67 = 1
z68: - x_3_4 + 0 x$_68 + 5 x$_69 = 0
z69: x$_68  + x$_69 = 1
z70: - x_4_0 + 0 x$_70 + 0 x$_71 = 0
z71: x$_70  + x$_71 = 1
z72: - x_4_1 + 0 x$_72 + 2 x$_73 = 0
z73: x$_72  + x$_73 = 1
z74: - x_4_2 + 0 x$_74 + 15 x$_75 = 0
z75: x$_74  + x$_75 = 1
z76: - x_4_3 + 0 x$_76 + 5 x$_77 = 0
z77: x$_76  + x$_77 = 1
z78: - x_4_4 + 0 x$_78 + 2 x$_79 = 0
z79: x$_78  + x$_79 = 1
z80: - x_5_0 + 0 x$_80 + 0 x$_81 = 0
z81: x$_80  + x$_81 = 1
z82: - x_5_1 + 0 x$_82 + 2 x$_83 = 0
z83: x$_82  + x$_83 = 1
z84: - x_5_2 + 0 x$_84 + 15 x$_85 = 0
z85: x$_84  + x$_85 = 1
z86: - x_5_3 + 0 x$_86 + 5 x$_87 = 0
z87: x$_86  + x$_87 = 1
z88: - x_5_4 + 0 x$_88 + 2 x$_89 = 0
z89: x$_88  + x$_89 = 1
z90: - x_6_0 + 0 x$_90 + 2 x$_91 = 0
z91: x$_90  + x$_91 = 1
z92: - x_6_1 + 0 x$_92 + 4 x$_93 = 0
z93: x$_92  + x$_93 = 1
z94: - x_6_2 + 0 x$_94 + 0 x$_95 = 0
z95: x$_94  + x$_95 = 1
z96: - x_6_3 + 0 x$_96 + 8 x$_97 = 0
z97: x$_96  + x$_97 = 1
z98: - x_6_4 + 0 x$_98 + 0 x$_99 = 0
z99: x$_98  + x$_99 = 1
z100: - x_7_0 + 0 x$_100 + 0 x$_101 = 0
z101: x$_100  + x$_101 = 1
z102: - x_7_1 + 0 x$_102 + 2 x$_103 = 0
z103: x$_102  + x$_103 = 1
z104: - x_7_2 + 0 x$_104 + 15 x$_105 = 0
z105: x$_104  + x$_105 = 1
z106: - x_7_3 + 0 x$_106 + 5 x$_107 = 0
z107: x$_106  + x$_107 = 1
z108: - x_7_4 + 0 x$_108 + 2 x$_109 = 0
z109: x$_108  + x$_109 = 1



Binary

x$_0 x$_1 x$_2 x$_3 x$_4 x$_5 x$_6 x$_7 x$_8 x$_9 x$_10 x$_11 x$_12 x$_13 x$_14 x$_15 x$_16 x$_17 x$_18 x$_19 x$_20 x$_21 x$_22 x$_23 x$_24 x$_25 x$_26 x$_27 x$_28 x$_29 x$_30 x$_31 x$_32 x$_33 x$_34 x$_35 x$_36 x$_37 x$_38 x$_39 x$_40 x$_41 x$_42 x$_43 x$_44 x$_45 x$_46 x$_47 x$_48 x$_49 x$_50 x$_51 x$_52 x$_53 x$_54 x$_55 x$_56 x$_57 x$_58 x$_59 x$_60 x$_61 x$_62 x$_63 x$_64 x$_65 x$_66 x$_67 x$_68 x$_69 x$_70 x$_71 x$_72 x$_73 x$_74 x$_75 x$_76 x$_77 x$_78 x$_79 x$_80 x$_81 x$_82 x$_83 x$_84 x$_85 x$_86 x$_87 x$_88 x$_89 x$_90 x$_91 x$_92 x$_93 x$_94 x$_95 x$_96 x$_97 x$_98 x$_99 x$_100 x$_101 x$_102 x$_103 x$_104 x$_105 x$_106 x$_107 x$_108 x$_109y_0 y_1 y_2 y_3 y_4


General

 x_0_0 x_0_1 x_0_2 x_0_3 x_0_4 x_1_0 x_1_1 x_1_2 x_1_3 x_1_4 x_2_0 x_2_1 x_2_2 x_2_3 x_2_4 x_3_0 x_3_1 x_3_2 x_3_3 x_3_4 x_4_0 x_4_1 x_4_2 x_4_3 x_4_4 x_5_0 x_5_1 x_5_2 x_5_3 x_5_4 x_6_0 x_6_1 x_6_2 x_6_3 x_6_4 x_7_0 x_7_1 x_7_2 x_7_3 x_7_4



End
